1 50 50
2 59 50
3 68 50
4 77 50
5 86 50
6 95 50
7 104 50
8 113 50
9 122 50
10 131 50
11 140 50
12 149 50
13 158 50
14 167 50
15 176 50
16 185 50
17 194 50
18 203 50
19 212 50
20 221 50
21 230 50
22 239 50
23 248 50
24 257 50
25 266 50
26 275 50
27 284 50
28 293 50
29 302 50
30 311 50
31 320 50
32 50 57
33 59 57
34 68 57
35 77 57
36 86 57
37 95 57
38 104 57
39 113 57
40 122 57
41 131 57
42 140 57
43 149 57
44 158 57
45 167 57
46 176 57
47 185 57
48 194 57
49 203 57
50 212 57
51 221 57
52 230 57
53 239 57
54 248 57
55 257 57
56 266 57
57 275 57
58 284 57
59 293 57
60 302 57
61 311 57
62 320 57
63 50 64
64 59 64
65 68 64
66 77 64
67 86 64
68 95 64
69 104 64
70 113 64
71 122 64
72 131 64
73 140 64
74 149 64
75 158 64
76 167 64
77 176 64
78 185 64
79 194 64
80 203 64
81 212 64
82 221 64
83 230 64
84 239 64
85 248 64
86 257 64
87 266 64
88 275 64
89 284 64
90 293 64
91 302 64
92 311 64
93 320 64
94 50 71
95 59 71
96 68 71
97 77 71
98 86 71
99 95 71
100 104 71
101 113 71
102 122 71
103 131 71
104 140 71
105 149 71
106 158 71
107 167 71
108 176 71
109 185 71
110 194 71
111 203 71
112 212 71
113 221 71
114 230 71
115 239 71
116 248 71
117 257 71
118 266 71
119 275 71
120 284 71
121 293 71
122 302 71
123 311 71
124 320 71
125 50 78
126 59 78
127 68 78
128 77 78
129 86 78
130 95 78
131 104 78
132 113 78
133 122 78
134 131 78
135 140 78
136 149 78
137 158 78
138 167 78
139 176 78
140 185 78
141 194 78
142 203 78
143 212 78
144 221 78
145 230 78
146 239 78
147 248 78
148 257 78
149 266 78
150 275 78
151 284 78
152 293 78
153 302 78
154 311 78
155 320 78
156 50 85
157 59 85
158 68 85
159 77 85
160 86 85
161 95 85
162 104 85
163 113 85
164 122 85
165 131 85
166 140 85
167 149 85
168 158 85
169 167 85
170 176 85
171 185 85
172 194 85
173 203 85
174 212 85
175 221 85
176 230 85
177 239 85
178 248 85
179 257 85
180 266 85
181 275 85
182 284 85
183 293 85
184 302 85
185 311 85
186 320 85
187 50 92
188 59 92
189 68 92
190 77 92
191 86 92
192 95 92
193 104 92
194 113 92
195 122 92
196 131 92
197 140 92
198 149 92
199 158 92
200 167 92
201 176 92
202 185 92
203 194 92
204 203 92
205 212 92
206 221 92
207 230 92
208 239 92
209 248 92
210 257 92
211 266 92
212 275 92
213 284 92
214 293 92
215 302 92
216 311 92
217 320 92
218 50 99
219 59 99
220 68 99
221 77 99
222 86 99
223 95 99
224 104 99
225 113 99
226 122 99
227 131 99
228 140 99
229 149 99
230 158 99
231 167 99
232 176 99
233 185 99
234 194 99
235 203 99
236 212 99
237 221 99
238 230 99
239 239 99
240 248 99
241 257 99
242 266 99
243 275 99
244 284 99
245 293 99
246 302 99
247 311 99
248 320 99
249 50 106
250 59 106
251 68 106
252 77 106
253 86 106
254 95 106
255 104 106
256 113 106
257 122 106
258 131 106
259 140 106
260 149 106
261 158 106
262 167 106
263 176 106
264 185 106
265 194 106
266 203 106
267 212 106
268 221 106
269 230 106
270 239 106
271 248 106
272 257 106
273 266 106
274 275 106
275 284 106
276 293 106
277 302 106
278 311 106
279 320 106
280 50 113
281 59 113
282 68 113
283 77 113
284 86 113
285 95 113
286 104 113
287 113 113
288 122 113
289 131 113
290 140 113
291 149 113
292 158 113
293 167 113
294 176 113
295 185 113
296 194 113
297 203 113
298 212 113
299 221 113
300 230 113
301 239 113
302 248 113
303 257 113
304 266 113
305 275 113
306 284 113
307 293 113
308 302 113
309 311 113
310 320 113
311 50 120
312 59 120
313 68 120
314 77 120
315 86 120
316 95 120
317 104 120
318 113 120
319 122 120
320 131 120
321 140 120
322 149 120
323 158 120
324 167 120
325 176 120
326 185 120
327 194 120
328 203 120
329 212 120
330 221 120
331 230 120
332 239 120
333 248 120
334 257 120
335 266 120
336 275 120
337 284 120
338 293 120
339 302 120
340 311 120
341 320 120
342 50 127
343 59 127
344 68 127
345 77 127
346 86 127
347 95 127
348 104 127
349 113 127
350 122 127
351 131 127
352 140 127
353 149 127
354 158 127
355 167 127
356 176 127
357 185 127
358 194 127
359 203 127
360 212 127
361 221 127
362 230 127
363 239 127
364 248 127
365 257 127
366 266 127
367 275 127
368 284 127
369 293 127
370 302 127
371 311 127
372 320 127
373 50 134
374 59 134
375 68 134
376 77 134
377 86 134
378 95 134
379 104 134
380 113 134
381 122 134
382 131 134
383 140 134
384 149 134
385 158 134
386 167 134
387 176 134
388 185 134
389 194 134
390 203 134
391 212 134
392 221 134
393 230 134
394 239 134
395 248 134
396 257 134
397 266 134
398 275 134
399 284 134
400 293 134
401 302 134
402 311 134
403 320 134
404 50 141
405 59 141
406 68 141
407 77 141
408 86 141
409 95 141
410 104 141
411 113 141
412 122 141
413 131 141
414 140 141
415 149 141
416 158 141
417 167 141
418 176 141
419 185 141
420 194 141
421 203 141
422 212 141
423 221 141
424 230 141
425 239 141
426 248 141
427 257 141
428 266 141
429 275 141
430 284 141
431 293 141
432 302 141
433 311 141
434 320 141
435 50 148
436 59 148
437 68 148
438 77 148
439 86 148
440 95 148
441 104 148
442 113 148
443 122 148
444 131 148
445 140 148
446 149 148
447 158 148
448 167 148
449 176 148
450 185 148
451 194 148
452 203 148
453 212 148
454 221 148
455 230 148
456 239 148
457 248 148
458 257 148
459 266 148
460 275 148
461 284 148
462 293 148
463 302 148
464 311 148
465 320 148
466 50 155
467 59 155
468 68 155
469 77 155
470 86 155
471 95 155
472 104 155
473 113 155
474 122 155
475 131 155
476 140 155
477 149 155
478 158 155
479 167 155
480 176 155
481 185 155
482 194 155
483 203 155
484 212 155
485 221 155
486 230 155
487 239 155
488 248 155
489 257 155
490 266 155
491 275 155
492 284 155
493 293 155
494 302 155
495 311 155
496 320 155
497 50 162
498 59 162
499 68 162
500 77 162
501 86 162
502 95 162
503 104 162
504 113 162
505 122 162
506 131 162
507 140 162
508 149 162
509 158 162
510 167 162
511 176 162
512 185 162
513 194 162
514 203 162
515 212 162
516 221 162
517 230 162
518 239 162
519 248 162
520 257 162
521 266 162
522 275 162
523 284 162
524 293 162
525 302 162
526 311 162
527 320 162
528 50 169
529 59 169
530 68 169
531 77 169
532 86 169
533 95 169
534 104 169
535 113 169
536 122 169
537 131 169
538 140 169
539 149 169
540 158 169
541 167 169
542 176 169
543 185 169
544 194 169
545 203 169
546 212 169
547 221 169
548 230 169
549 239 169
550 248 169
551 257 169
552 266 169
553 275 169
554 284 169
555 293 169
556 302 169
557 311 169
558 320 169
559 50 176
560 59 176
561 68 176
562 77 176
563 86 176
564 95 176
565 104 176
566 113 176
567 122 176
568 131 176
569 140 176
570 149 176
571 158 176
572 167 176
573 176 176
574 185 176
575 194 176
576 203 176
577 212 176
578 221 176
579 230 176
580 239 176
581 248 176
582 257 176
583 266 176
584 275 176
585 284 176
586 293 176
587 302 176
588 311 176
589 320 176
590 50 183
591 59 183
592 68 183
593 77 183
594 86 183
595 95 183
596 104 183
597 113 183
598 122 183
599 131 183
600 140 183
601 149 183
602 158 183
603 167 183
604 176 183
605 185 183
606 194 183
607 203 183
608 212 183
609 221 183
610 230 183
611 239 183
612 248 183
613 257 183
614 266 183
615 275 183
616 284 183
617 293 183
618 302 183
619 311 183
620 320 183
621 50 190
622 59 190
623 68 190
624 77 190
625 86 190
626 95 190
627 104 190
628 113 190
629 122 190
630 131 190
631 140 190
632 149 190
633 158 190
634 167 190
635 176 190
636 185 190
637 194 190
638 203 190
639 212 190
640 221 190
641 230 190
642 239 190
643 248 190
644 257 190
645 266 190
646 275 190
647 284 190
648 293 190
649 302 190
650 311 190
651 320 190
652 50 197
653 59 197
654 68 197
655 77 197
656 86 197
657 95 197
658 104 197
659 113 197
660 122 197
661 131 197
662 140 197
663 149 197
664 158 197
665 167 197
666 176 197
667 185 197
668 194 197
669 203 197
670 212 197
671 221 197
672 230 197
673 239 197
674 248 197
675 257 197
676 266 197
677 275 197
678 284 197
679 293 197
680 302 197
681 311 197
682 320 197
683 50 204
684 59 204
685 68 204
686 77 204
687 86 204
688 95 204
689 104 204
690 113 204
691 122 204
692 131 204
693 140 204
694 149 204
695 158 204
696 167 204
697 176 204
698 185 204
699 194 204
700 203 204
701 212 204
702 221 204
703 230 204
704 239 204
705 248 204
706 257 204
707 266 204
708 275 204
709 284 204
710 293 204
711 302 204
712 311 204
713 320 204
714 50 211
715 59 211
716 68 211
717 77 211
718 86 211
719 95 211
720 104 211
721 113 211
722 122 211
723 131 211
724 140 211
725 149 211
726 158 211
727 167 211
728 176 211
729 185 211
730 194 211
731 203 211
732 212 211
733 221 211
734 230 211
735 239 211
736 248 211
737 257 211
738 266 211
739 275 211
740 284 211
741 293 211
742 302 211
743 311 211
744 320 211
745 50 218
746 59 218
747 68 218
748 77 218
749 86 218
750 95 218
751 104 218
752 113 218
753 122 218
754 131 218
755 140 218
756 149 218
757 158 218
758 167 218
759 176 218
760 185 218
761 194 218
762 203 218
763 212 218
764 221 218
765 230 218
766 239 218
767 248 218
768 257 218
769 266 218
770 275 218
771 284 218
772 293 218
773 302 218
774 311 218
775 320 218
776 50 225
777 59 225
778 68 225
779 77 225
780 86 225
781 95 225
782 104 225
783 113 225
784 122 225
785 131 225
786 140 225
787 149 225
788 158 225
789 167 225
790 176 225
791 185 225
792 194 225
793 203 225
794 212 225
795 221 225
796 230 225
797 239 225
798 248 225
799 257 225
800 266 225
801 275 225
802 284 225
803 293 225
804 302 225
805 311 225
806 320 225
807 50 232
808 59 232
809 68 232
810 77 232
811 86 232
812 95 232
813 104 232
814 113 232
815 122 232
816 131 232
817 140 232
818 149 232
819 158 232
820 167 232
821 176 232
822 185 232
823 194 232
824 203 232
825 212 232
826 221 232
827 230 232
828 239 232
829 248 232
830 257 232
831 266 232
832 275 232
833 284 232
834 293 232
835 302 232
836 311 232
837 320 232
838 50 239
839 59 239
840 68 239
841 77 239
842 86 239
843 95 239
844 104 239
845 113 239
846 122 239
847 131 239
848 140 239
849 149 239
850 158 239
851 167 239
852 176 239
853 185 239
854 194 239
855 203 239
856 212 239
857 221 239
858 230 239
859 239 239
860 248 239
861 257 239
862 266 239
863 275 239
864 284 239
865 293 239
866 302 239
867 311 239
868 320 239
869 50 246
870 59 246
871 68 246
872 77 246
873 86 246
874 95 246
875 104 246
876 113 246
877 122 246
878 131 246
879 140 246
880 149 246
881 158 246
882 167 246
883 176 246
884 185 246
885 194 246
886 203 246
887 212 246
888 221 246
889 230 246
890 239 246
891 248 246
892 257 246
893 266 246
894 275 246
895 284 246
896 293 246
897 302 246
898 311 246
899 320 246
900 50 253
901 59 253
902 68 253
903 77 253
904 86 253
905 95 253
906 104 253
907 113 253
908 122 253
909 131 253
910 140 253
911 149 253
912 158 253
913 167 253
914 176 253
915 185 253
916 194 253
917 203 253
918 212 253
919 221 253
920 230 253
921 239 253
922 248 253
923 257 253
924 266 253
925 275 253
926 284 253
927 293 253
928 302 253
929 311 253
930 320 253
931 50 260
932 59 260
933 68 260
934 77 260
935 86 260
936 95 260
937 104 260
938 113 260
939 122 260
940 131 260
941 140 260
942 149 260
943 158 260
944 167 260
945 176 260
946 185 260
947 194 260
948 203 260
949 212 260
950 221 260
951 230 260
952 239 260
953 248 260
954 257 260
955 266 260
956 275 260
957 284 260
958 293 260
959 302 260
960 311 260
961 320 260
962 50 267
963 59 267
964 68 267
965 77 267
966 86 267
967 95 267
968 104 267
969 113 267
970 122 267
971 131 267
972 140 267
973 149 267
974 158 267
975 167 267
976 176 267
977 185 267
978 194 267
979 203 267
980 212 267
981 221 267
982 230 267
983 239 267
984 248 267
985 257 267
986 266 267
987 275 267
988 284 267
989 293 267
990 302 267
991 311 267
992 320 267
993 50 274
994 59 274
995 68 274
996 77 274
997 86 274
998 95 274
999 104 274
1000 113 274
1001 122 274
1002 131 274
